NAME : XML100_1355_19
DIMENSION : 101
NB_CLUSTERS : 3
CLUSTERING_ALG : KMedoids
CLUSTERING_PARAMS : k(2)
CLUSTERS
1 0
2 2 3 4 5 9 10 13 14 15 16 17 18 20 23 25 28 29 30 34 35 36 37 38 40 41 42 44 46 49 53 55 57 58 59 62 64 67 69 70 71 73 79 81 83 84 85 87 88 89 91 94 96 100
3 1 6 7 8 11 12 19 21 22 24 26 27 31 32 33 39 43 45 47 48 50 51 52 54 56 60 61 63 65 66 68 72 74 75 76 77 78 80 82 86 90 92 93 95 97 98 99
EOF